objective value:                                   82
x[1]                                                1 	(obj:0)
x[2]                                                1 	(obj:0)
x[6]                                                1 	(obj:0)
x[8]                                                1 	(obj:0)
x[9]                                                1 	(obj:0)
x[11]                                               1 	(obj:0)
x[12]                                               1 	(obj:0)
x[13]                                               1 	(obj:0)
x[16]                                               1 	(obj:0)
x[21]                                               1 	(obj:0)
x[22]                                               1 	(obj:0)
x[24]                                               1 	(obj:0)
x[26]                                               1 	(obj:0)
x[28]                                               1 	(obj:0)
x[29]                                               1 	(obj:0)
y[0][1]                                             1 	(obj:1)
y[0][6]                                             1 	(obj:1)
y[0][8]                                             1 	(obj:1)
y[0][9]                                             1 	(obj:1)
y[0][12]                                            1 	(obj:1)
y[0][21]                                            1 	(obj:1)
y[1][14]                                            1 	(obj:1)
y[1][18]                                            1 	(obj:1)
y[1][23]                                            1 	(obj:1)
y[1][25]                                            1 	(obj:1)
y[2][4]                                             1 	(obj:1)
y[2][14]                                            1 	(obj:1)
y[2][17]                                            1 	(obj:1)
y[2][18]                                            1 	(obj:1)
y[2][19]                                            1 	(obj:1)
y[2][23]                                            1 	(obj:1)
y[2][25]                                            1 	(obj:1)
y[2][27]                                            1 	(obj:1)
y[3][13]                                            1 	(obj:1)
y[3][16]                                            1 	(obj:1)
y[3][21]                                            1 	(obj:1)
y[4][9]                                             1 	(obj:1)
y[4][12]                                            1 	(obj:1)
y[4][16]                                            1 	(obj:1)
y[4][22]                                            1 	(obj:1)
y[4][24]                                            1 	(obj:1)
y[4][28]                                            1 	(obj:1)
y[5][9]                                             1 	(obj:1)
y[5][11]                                            1 	(obj:1)
y[5][16]                                            1 	(obj:1)
y[5][21]                                            1 	(obj:1)
y[5][24]                                            1 	(obj:1)
y[5][29]                                            1 	(obj:1)
y[6][23]                                            1 	(obj:1)
y[7][8]                                             1 	(obj:1)
y[7][11]                                            1 	(obj:1)
y[7][29]                                            1 	(obj:1)
y[8][15]                                            1 	(obj:1)
y[8][20]                                            1 	(obj:1)
y[9][10]                                            1 	(obj:1)
y[9][15]                                            1 	(obj:1)
y[9][20]                                            1 	(obj:1)
y[9][27]                                            1 	(obj:1)
y[10][12]                                           1 	(obj:1)
y[10][13]                                           1 	(obj:1)
y[10][24]                                           1 	(obj:1)
y[10][26]                                           1 	(obj:1)
y[10][28]                                           1 	(obj:1)
y[11][17]                                           1 	(obj:1)
y[11][23]                                           1 	(obj:1)
y[11][27]                                           1 	(obj:1)
y[12][20]                                           1 	(obj:1)
y[12][23]                                           1 	(obj:1)
y[13][17]                                           1 	(obj:1)
y[13][18]                                           1 	(obj:1)
y[13][20]                                           1 	(obj:1)
y[13][25]                                           1 	(obj:1)
y[14][21]                                           1 	(obj:1)
y[14][26]                                           1 	(obj:1)
y[14][29]                                           1 	(obj:1)
y[15][16]                                           1 	(obj:1)
y[15][21]                                           1 	(obj:1)
y[15][22]                                           1 	(obj:1)
y[15][24]                                           1 	(obj:1)
y[15][28]                                           1 	(obj:1)
y[16][17]                                           1 	(obj:1)
y[16][25]                                           1 	(obj:1)
y[17][22]                                           1 	(obj:1)
y[17][26]                                           1 	(obj:1)
y[17][28]                                           1 	(obj:1)
y[17][29]                                           1 	(obj:1)
y[18][28]                                           1 	(obj:1)
y[19][21]                                           1 	(obj:1)
y[19][22]                                           1 	(obj:1)
y[20][21]                                           1 	(obj:1)
y[20][24]                                           1 	(obj:1)
y[23][29]                                           1 	(obj:1)
y[24][27]                                           1 	(obj:1)
y[25][26]                                           1 	(obj:1)
y[25][28]                                           1 	(obj:1)
y[26][27]                                           1 	(obj:1)
y[27][29]                                           1 	(obj:1)
